3635 3457 3190 3388 3307 3281 3277 3240 3303 3192 3188 3088 3006 2920 2890 2840 2779 2670 2640 2581 2510 2451 2390 2329 2260 2210 2168 2138 2080 2042 2017 1977 1956 1907 1876 1852 1837 1817 1794 1769 1753 1741 1726 1718 1701 1690 1678 1660 1642 1625 1611 1593 1578 1553 1543 1536 1526 1514 1497 1492 1481 1474 1466 1457 1447 1439 1428 1416 1408 1401 1397 1391 1387 1376 1368 1364 1357 1352 1345 1341 1332 1331 1327 1321 1314 1300 1291 1286 1281 1275 1271 1262 1258 1254 1249 1246 1244 1241 1237 1227 1225 1222 1219 1215 1214 1212 1206 1204 1202 1201 1201 1200 1194 1191 1189 1188 1187 1187 1178 1177 1168 1168 1168 1167 1166 1166 1165 1165 1162 1162 1161 1160 1158 1158 1158 1153 1153 1149 1149 1149 1145 1144 1144 1144 1144 1143 1143 1143 1141 1140 1140 1138 1137 1134 1133 1133 1133 1133 1132 1131 1131 1131 1131 1131 1131 1131 1131 1131 1130 1130 1130 1129 1129 1129 1129 1129 1129 1129 1129 1129 1129 1129 1129 1129 1129 1129 1129 1129 1129 1129 1128 1128 1128 1128 1128 1128 1128 1128 1128 1128 1128 1128 1128 1128 1128 1128 1128 1128 1128 1126 1126 1126 1126 1126 1126 1126 1126 1126 1126 1121 1121 1121 1120 1120 1119 1119 1119 1119 1119 1119 1119 1119 1119 1115 1115 1115 1113 1113 1113 1113 1113 1113 1113 1113 1113 1113 1112 1112 1112 1112 1112 1112 1112 1112 1112 1112 1112 1112 1112 1112 1112 1111 1111 1111 1111 1111 1111 1111 1111 1111 1109 1109 1109 1109 1109 1109 1109 1109 1107 1107 1106 1106 1106 1106 1106 1106 1106 1106 1106 1106 1106 1106 1106 1106 1106 1106 1106 1106 1106 1106 1106 1106 1106 1106 1106 1106 1106 1106 1106 1106 1106 1106 1106 1106 1106 1106 1106 1106 1106 1106 1106 1106 1106 1106 1106 1106 1106 1106 1106 1106 1106 1106 1106 1106 1106 1106 1106 1106 1106 1106 1106 1106 1106 1106 1106 1106 1106 1106 1106 1106 1106 1106 1106 1106 1106 1106 1106 1106 1106 1106 1106 1106 1106 1106 1106 1106 1106 1106 1106 1106 1106 1106 1106 1106 1106 1106 1106 1106 1106 1106 1106 1106 1106 1106 1106 1106 1106 1106 1106 1106 1106 1106 1106 1106 1106 1106 1106 1106 1106 1106 1106 1106 1106 1106 1106 1106 1106 1106 1106 1106 1106 1106 1106 1106 1106 1106 1106 1106 1106 1106 1106 1106 1106 1106 1106 1106 1106 1106 1106 1106 1106 1106 1106 1106 1106 1106 1106 1106 1106 1106 1106 1106 1106 1106 1106 1106 1106 1106 1106 1106 1106 1106 1106 1106 1106 1106 1106 1106 1106 1106 1106 1106 1106 1106 1106 1106 1106 1106 1106 1106 1106 1106 1106 1106 1106 1106 1106 1106 1106 1106 1106 1106 1106 1106 1106 1106 1106 1106 1106 1106 1106 1106 1106 1106 1106 1106 1106 1106 1106 1106 1106 1106 1106 1106 1106 1106 1106 1106 1106 1106 1106 1106 1106 1106 1106 1106 1106 1106 1106 1106 1106 1106 1106 1106 1106 1106 1106 1106 1106 1106 1106 1106 1106 1106 1106 1106 1106 1106 1106 1106 1106 1106 1106 1106 1106 1106 1106 1106 1106 1106 1106 1106 1106 1106 1106 1106 1106 1106 1106 1106 1106 1106 1106 1106 1106 1106 1106 1106 1106 1106 1106 1106 1106 1106 1106 1106 1106 1106 1106 1106 1106 1106 1106 1106 1106 1106 1106 1106 1106 1106 1106 1106 1106 1106 1106 1105 1105 1105 1105 1105 1105 1105 1105 1105 1105 1105 1105 1105 1105 1105 1105 1105 1105 1105 1105 1105 1105 1105 1105 1105 1105 1105 1105 1105 1105 1105 1105 1105 1105 1105 1105 1105 1105 1105 1105 1105 1105 1100 1100 1100 1100 1089 1089 1089 1089 1089 1089 1089 1089 1089 1089 1089 1089 1089 1089 1089 1089 1089 1089 1089 1089 1089 1089 1089 1089 1089 1089 1089 1089 1089 1089 1089 1089 1089 1089 1089 1089 1089 1089 1089 1089 1089 1089 1089 1089 1089 1089 1089 1089 1089 1089 1089 1089 1089 1089 1089 1089 1089 1089 1089 1089 1089 1089 1089 1089 1089 1089 1089 1089 1089 1089 1089 1089 1089 1089 1089 1089 1089 1089 1089 1089 1089 1089 1089 1089 1089 1089 1089 1089 1089 1089 1089 1089 1089 1089 1089 1089 1089 1089 1089 1089 1089 1089 1089 1089 1089 1089 1089 1089 1089 1089 1089 1089 1085 1085 1085 1085 1085 1085 1085 1085 1085 1085 1085 1085 1085 1085 1085 1085 1085 1085 1085 1085 1085 1085 1085 1085 1085 1085 1085 1085 1085 1085 1085 1085 1085 1085 1085 1085 1085 1085 1085 1085 1085 1085 1085 1085 1085 1085 1085 1085 1085 1085 1085 1085 1085 1085 1085 1085 1085 1082 1082 1082 1082 1082 1082 1082 1082 1082 1082 1082 1082 1082 1082 1082 1082 1082 1082 1082 1082 1082 1082 1082 1082 1082 1082 1082 1082 1082 1082 1082 1082 1082 1082 1082 1082 1082 1082 1082 1082 1082 1082 1082 1082 1082 1082 1082 1082 1082 1082 1082 1082 1082 1082 1082 1082 1082 1082 1082 1082 1082 1082 1082 1082 1082 1082 1082 1082 1082 1082 1082 1082 1082 1082 1082 1082 1082 1082 1082 1082 1082 1082 1082 1082 1082 1082 1082 1082 1082 1082 1082 1082 1082 1082 1082 1082 1082 1082 1082 1082 1082 1082 1082 1082 1082 1082 1082 1082 1082 1082 1082 1082 1082 1082 1082 1082 1082 1082 1082 1082 1082 1082 1082 1082 1082 1082 1082 1082 1082 1082 1082 1082 1082 1082 1082 1082 1082 1082 1082 1082 1082 1082 1082 1082 1082 1082 1082 1082 1082 1082 1082 1082 1082 1082 1082 1082 1082 1082 1082 1082 1082 1082 1082 1082 1082 1082 1082 1082 1082 1082 1082 1082 1082 1082 1082 1082 1082 1082 1082 1082 1082 1082 1082 1082 1082 1082 1082 1082 1082 1082 1082 1082 1082 1082 1082 1082 1082 1082 1082 1082 1082 1082 1082 1082 1082 1082 1082 1082 1082 1082 1082 1082 1082 1082 1082 1082 1082 1082 1082 1082 1082 1082 1082 1082 1082 1082 1082 1082 1082 1082 1082 1082 1082 1082 1082 1082 1082 1082 1082 1082 1082 1082 1082 1082 1082 1082 1082 1082 1082 1082 1082 1082 1082 1082 1082 1082 1082 1082 1082 1082 1082 1082 1082 1082 1082 1082 1082 1082 1082 1082 1082 1082 1082 1082 1082 1082 1082 1082 1082 1082 1082 1082 1082 1082 1082 1082 1082 1082 1082 1082 1082 1082 1082 1082 1082 1082 1082 1082 1082 1082 1082 1082 1082 1082 1082 1082 1082 1082 1082 1082 1082 1082 1082 1082 1082 1082 1082 1082 1082 1082 1082 1082 1082 1082 1082 1082 1082 1082 1082 1082 1082 1082 1082 1082 1082 1082 1082 1082 1082 1082 1082 1082 1082 1082 1082 1082 1082 1082 1082 1082 1082 1082 1082 1082 1082 1082 1082 1082 1082 1082 1082 1082 1082 1082 1082 1082 1082 1082 1082 1082 1082 1082 1082 1082 1082 1082 1082 1082 1082 1082 1082 1082 1082 1082 1082 1082 1082 1082 1082 1082 1082 1082 1082 1082 1082 1082 1082 1082 1082 1082 1082 1082 1082 1082 1082 1082 1082 1082 1082 1082 1082 1082 1082 1082 1082 1082 1082 1082 1082 1082 1082 1082 1082 1082 1082 1082 1082 1082 1082 1082 1082 1082 1082 1082 1082 1082 1082 1082 1082 1082 1082 1082 1082 1082 1082 1082 1082 1082 1082 1082 1082 1082 1082 1082 1082 1082 1082 1082 1082 1082 1082 1082 1082 1082 1082 1082 1082 1082 1082 1082 1082 1082 1082 1082 1082 1082 1082 1082 1082 1082 1082 1082 1082 1082 1082 1082 1082 1082 1082 1082 1082 1082 1082 1082 1082 1082 1082 1082 1082 1082 1082 
392 290 229 158 106 97 43 38 21 7 3 0 0 0 0 0 0 0 0 0 0 0 0 0 0 0 0 0 0 0 0 0 0 0 0 0 0 0 0 0 0 0 0 0 0 0 0 0 0 0 0 0 0 0 0 0 0 0 0 0 0 0 0 0 0 0 0 0 0 0 0 0 0 0 0 0 0 0 0 0 0 0 0 0 0 0 0 0 0 0 0 0 0 0 0 0 0 0 0 0 0 0 0 0 0 0 0 0 0 0 0 0 0 0 0 0 0 0 0 0 0 0 0 0 0 0 0 0 0 0 0 0 0 0 0 0 0 0 0 0 0 0 0 0 0 0 0 0 0 0 0 0 0 0 0 0 0 0 0 0 0 0 0 0 0 0 0 0 0 0 0 0 0 0 0 0 0 0 0 0 0 0 0 0 0 0 0 0 0 0 0 0 0 0 0 0 0 0 0 0 0 0 0 0 0 0 0 0 0 0 0 0 0 0 0 0 0 0 0 0 0 0 0 0 0 0 0 0 0 0 0 0 0 0 0 0 0 0 0 0 0 0 0 0 0 0 0 0 0 0 0 0 0 0 0 0 0 0 0 0 0 0 0 0 0 0 0 0 0 0 0 0 0 0 0 0 0 0 0 0 0 0 0 0 0 0 0 0 0 0 0 0 0 0 0 0 0 0 0 0 0 0 0 0 0 0 0 0 0 0 0 0 0 0 0 0 0 0 0 0 0 0 0 0 0 0 0 0 0 0 0 0 0 0 0 0 0 0 0 0 0 0 0 0 0 0 0 0 0 0 0 0 0 0 0 0 0 0 0 0 0 0 0 0 0 0 0 0 0 0 0 0 0 0 0 0 0 0 0 0 0 0 0 0 0 0 0 0 0 0 0 0 0 0 0 0 0 0 0 0 0 0 0 0 0 0 0 0 0 0 0 0 0 0 0 0 0 0 0 0 0 0 0 0 0 0 0 0 0 0 0 0 0 0 0 0 0 0 0 0 0 0 0 0 0 0 0 0 0 0 0 0 0 0 0 0 0 0 0 0 0 0 0 0 0 0 0 0 0 0 0 0 0 0 0 0 0 0 0 0 0 0 0 0 0 0 0 0 0 0 0 0 0 0 0 0 0 0 0 0 0 0 0 0 0 0 0 0 0 0 0 0 0 0 0 0 0 0 0 0 0 0 0 0 0 0 0 0 0 0 0 0 0 0 0 0 0 0 0 0 0 0 0 0 0 0 0 0 0 0 0 0 0 0 0 0 0 0 0 0 0 0 0 0 0 0 0 0 0 0 0 0 0 0 0 0 0 0 0 0 0 0 0 0 0 0 0 0 0 0 0 0 0 0 0 0 0 0 0 0 0 0 0 0 0 0 0 0 0 0 0 0 0 0 0 0 0 0 0 0 0 0 0 0 0 0 0 0 0 0 0 0 0 0 0 0 0 0 0 0 0 0 0 0 0 0 0 0 0 0 0 0 0 0 0 0 0 0 0 0 0 0 0 0 0 0 0 0 0 0 0 0 0 0 0 0 0 0 0 0 0 0 0 0 0 0 0 0 0 0 0 0 0 0 0 0 0 0 0 0 0 0 0 0 0 0 0 0 0 0 0 0 0 0 0 0 0 0 0 0 0 0 0 0 0 0 0 0 0 0 0 0 0 0 0 0 0 0 0 0 0 0 0 0 0 0 0 0 0 0 0 0 0 0 0 0 0 0 0 0 0 0 0 0 0 0 0 0 0 0 0 0 0 0 0 0 0 0 0 0 0 0 0 0 0 0 0 0 0 0 0 0 0 0 0 0 0 0 0 0 0 0 0 0 0 0 0 0 0 0 0 0 0 0 0 0 0 0 0 0 0 0 0 0 0 0 0 0 0 0 0 0 0 0 0 0 0 0 0 0 0 0 0 0 0 0 0 0 0 0 0 0 0 0 0 0 0 0 0 0 0 0 0 0 0 0 0 0 0 0 0 0 0 0 0 0 0 0 0 0 0 0 0 0 0 0 0 0 0 0 0 0 0 0 0 0 0 0 0 0 0 0 0 0 0 0 0 0 0 0 0 0 0 0 0 0 0 0 0 0 0 0 0 0 0 0 0 0 0 0 0 0 0 0 0 0 0 0 0 0 0 0 0 0 0 0 0 0 0 0 0 0 0 0 0 0 0 0 0 0 0 0 0 0 0 0 0 0 0 0 0 0 0 0 0 0 0 0 0 0 0 0 0 0 0 0 0 0 0 0 0 0 0 0 0 0 0 0 0 0 0 0 0 0 0 0 0 0 0 0 0 0 0 0 0 0 0 0 0 0 0 0 0 0 0 0 0 0 0 0 0 0 0 0 0 0 0 0 0 0 0 0 0 0 0 0 0 0 0 0 0 0 0 0 0 0 0 0 0 0 0 0 0 0 0 0 0 0 0 0 0 0 0 0 0 0 0 0 0 0 0 0 0 0 0 0 0 0 0 0 0 0 0 0 0 0 0 0 0 0 0 0 0 0 0 0 0 0 0 0 0 0 0 0 0 0 0 0 0 0 0 0 0 0 0 0 0 0 0 0 0 0 0 0 0 0 0 0 0 0 0 0 0 0 0 0 0 0 0 0 0 0 0 0 0 0 0 0 0 0 0 0 0 0 0 0 0 0 0 0 0 0 0 0 0 0 0 0 0 0 0 0 0 0 0 0 0 0 0 0 0 0 0 0 0 0 0 0 0 0 0 0 0 0 0 0 0 0 0 0 0 0 0 0 0 0 0 0 0 0 0 0 0 0 0 0 0 0 0 0 0 0 0 0 0 0 0 0 0 0 0 0 0 0 0 0 0 0 0 0 0 0 0 0 0 0 0 0 0 0 0 0 0 0 0 0 0 0 0 0 0 0 0 0 0 0 0 0 0 0 0 0 0 0 0 0 0 0 0 0 0 0 0 0 0 0 0 0 0 0 0 0 0 0 0 0 0 0 0 0 0 